ilp_joint/output/asexual reproduction_ilp.lp
Maximize
  8.3038e-05 Z_12_0_0 + 0.00412288326953365 Z_12_0_1
   + 0.8688788935991619 Z_12_0_2 + 0.00195242755913526 Z_12_0_3
   + 0.0249627575392359 Z_12_0_4 + 1.1225860698894695e-04 Z_493_0_0
   + 0.0036782298535921 Z_493_0_1 + 0.8841415008428752 Z_493_0_2
   + 0.00158289897477871 Z_493_0_3 + 0.010485111721765 Z_493_0_4 + [
   0.0183673469387755 Z_12_0_0 * Z_493_0_0
   + 0.0183673469387755 Z_12_0_1 * Z_493_0_1
   + 0.0183673469387755 Z_12_0_2 * Z_493_0_2
   + 0.0183673469387755 Z_12_0_3 * Z_493_0_3
   + 0.0183673469387755 Z_12_0_4 * Z_493_0_4 ] / 2 
Subject To
 constraint1_120: Z_12_0_0 + Z_12_0_1 + Z_12_0_2 + Z_12_0_3 + Z_12_0_4
   <= 1
 constraint1_4930: Z_493_0_0 + Z_493_0_1 + Z_493_0_2 + Z_493_0_3
   + Z_493_0_4 <= 1
 constraint2_120: Z_12_0_0 <= 1
 constraint2_121: Z_12_0_1 <= 1
 constraint2_122: Z_12_0_2 <= 1
 constraint2_123: Z_12_0_3 <= 1
 constraint2_4930: Z_493_0_0 <= 1
 constraint2_4931: Z_493_0_1 <= 1
 constraint2_4932: Z_493_0_2 <= 1
 constraint2_4933: Z_493_0_3 <= 1
Bounds
Binaries
 Z_12_0_0 Z_12_0_1 Z_12_0_2 Z_12_0_3 Z_12_0_4 Z_493_0_0 Z_493_0_1 Z_493_0_2
 Z_493_0_3 Z_493_0_4
End
