ilp_joint/output/asexual reproduction_ilp.mps
NAME asexual reproduction_srl_ilp
* Max problem is converted into Min one
ROWS
 N  OBJ
 L  constraint1_2531
 L  constraint1_2600
 L  constraint1_3700
 L  constraint1_2500
 L  constraint1_340
 L  constraint2_2530
 L  constraint2_2531
 L  constraint2_2532
 L  constraint2_2533
 L  constraint2_5380
 L  constraint2_5381
 L  constraint2_5382
 L  constraint2_5383
 L  constraint2_4850
 L  constraint2_4851
 L  constraint2_4852
 L  constraint2_4853
 L  constraint2_2600
 L  constraint2_2601
 L  constraint2_2602
 L  constraint2_2603
 L  constraint2_3700
 L  constraint2_3701
 L  constraint2_3702
 L  constraint2_3703
 L  constraint2_5540
 L  constraint2_5541
 L  constraint2_5542
 L  constraint2_5543
 L  constraint2_2500
 L  constraint2_2501
 L  constraint2_2502
 L  constraint2_2503
 L  constraint2_340
 L  constraint2_341
 L  constraint2_342
 L  constraint2_343
 L  constraint2_2890
 L  constraint2_2891
 L  constraint2_2892
 L  constraint2_2893
 L  constraint2_3460
 L  constraint2_3461
 L  constraint2_3462
 L  constraint2_3463
COLUMNS
    MARKER    'MARKER'                 'INTORG'
    Z_253_1_0  OBJ       -9.9393032589648565e-04
    Z_253_1_0  constraint1_2531  1
    Z_253_1_0  constraint2_2530  1
    Z_253_1_1  OBJ       -1.3301698158879490e-03
    Z_253_1_1  constraint1_2531  1
    Z_253_1_1  constraint2_2531  1
    Z_253_1_2  OBJ       -7.8060937855892765e-01
    Z_253_1_2  constraint1_2531  1
    Z_253_1_2  constraint2_2532  1
    Z_253_1_3  OBJ       -4.2027485096392545e-03
    Z_253_1_3  constraint1_2531  1
    Z_253_1_3  constraint2_2533  1
    Z_253_1_4  OBJ       -1.1286377278964871e-01
    Z_253_1_4  constraint1_2531  1
    Z_260_0_0  OBJ       -1.0732915047419828e-04
    Z_260_0_0  constraint1_2600  1
    Z_260_0_0  constraint2_2600  1
    Z_260_0_1  OBJ       -2.4878308903191742e-03
    Z_260_0_1  constraint1_2600  1
    Z_260_0_1  constraint2_2601  1
    Z_260_0_2  OBJ       -8.7918047021812806e-01
    Z_260_0_2  constraint1_2600  1
    Z_260_0_2  constraint2_2602  1
    Z_260_0_3  OBJ       -8.7020798750652557e-04
    Z_260_0_3  constraint1_2600  1
    Z_260_0_3  constraint2_2603  1
    Z_260_0_4  OBJ       -1.7354161753572100e-02
    Z_260_0_4  constraint1_2600  1
    Z_370_0_0  OBJ       -1.1452129920161190e-04
    Z_370_0_0  constraint1_3700  1
    Z_370_0_0  constraint2_3700  1
    Z_370_0_1  OBJ       -2.2150182442519741e-03
    Z_370_0_1  constraint1_3700  1
    Z_370_0_1  constraint2_3701  1
    Z_370_0_2  OBJ       -8.6805685297104929e-01
    Z_370_0_2  constraint1_3700  1
    Z_370_0_2  constraint2_3702  1
    Z_370_0_3  OBJ       -1.0441973958998398e-03
    Z_370_0_3  constraint1_3700  1
    Z_370_0_3  constraint2_3703  1
    Z_370_0_4  OBJ       -2.8569410089597375e-02
    Z_370_0_4  constraint1_3700  1
    Z_250_0_0  OBJ       -6.7367464021217006e-05
    Z_250_0_0  constraint1_2500  1
    Z_250_0_0  constraint2_2500  1
    Z_250_0_1  OBJ       -3.1886434965061961e-03
    Z_250_0_1  constraint1_2500  1
    Z_250_0_1  constraint2_2501  1
    Z_250_0_2  OBJ       -8.3308991216476536e-01
    Z_250_0_2  constraint1_2500  1
    Z_250_0_2  constraint2_2502  1
    Z_250_0_3  OBJ       -3.1630199124922247e-04
    Z_250_0_3  constraint1_2500  1
    Z_250_0_3  constraint2_2503  1
    Z_250_0_4  OBJ       -6.3337774883458070e-02
    Z_250_0_4  constraint1_2500  1
    Z_34_0_0  OBJ       -1.1369480571460631e-04
    Z_34_0_0  constraint1_340  1
    Z_34_0_0  constraint2_340  1
    Z_34_0_1  OBJ       -2.1794332512875265e-03
    Z_34_0_1  constraint1_340  1
    Z_34_0_1  constraint2_341  1
    Z_34_0_2  OBJ       -8.7193105873173371e-01
    Z_34_0_2  constraint1_340  1
    Z_34_0_2  constraint2_342  1
    Z_34_0_3  OBJ       -1.1959498325789905e-03
    Z_34_0_3  constraint1_340  1
    Z_34_0_3  constraint2_343  1
    Z_34_0_4  OBJ       -2.4579863378685243e-02
    Z_34_0_4  constraint1_340  1
    MARKER    'MARKER'                 'INTEND'
RHS
    RHS1      constraint1_2531  1
    RHS1      constraint1_2600  1
    RHS1      constraint1_3700  1
    RHS1      constraint1_2500  1
    RHS1      constraint1_340  1
    RHS1      constraint2_2530  1
    RHS1      constraint2_2531  1
    RHS1      constraint2_2532  1
    RHS1      constraint2_2533  1
    RHS1      constraint2_5380  1
    RHS1      constraint2_5381  1
    RHS1      constraint2_5382  1
    RHS1      constraint2_5383  1
    RHS1      constraint2_4850  1
    RHS1      constraint2_4851  1
    RHS1      constraint2_4852  1
    RHS1      constraint2_4853  1
    RHS1      constraint2_2600  1
    RHS1      constraint2_2601  1
    RHS1      constraint2_2602  1
    RHS1      constraint2_2603  1
    RHS1      constraint2_3700  1
    RHS1      constraint2_3701  1
    RHS1      constraint2_3702  1
    RHS1      constraint2_3703  1
    RHS1      constraint2_5540  1
    RHS1      constraint2_5541  1
    RHS1      constraint2_5542  1
    RHS1      constraint2_5543  1
    RHS1      constraint2_2500  1
    RHS1      constraint2_2501  1
    RHS1      constraint2_2502  1
    RHS1      constraint2_2503  1
    RHS1      constraint2_340  1
    RHS1      constraint2_341  1
    RHS1      constraint2_342  1
    RHS1      constraint2_343  1
    RHS1      constraint2_2890  1
    RHS1      constraint2_2891  1
    RHS1      constraint2_2892  1
    RHS1      constraint2_2893  1
    RHS1      constraint2_3460  1
    RHS1      constraint2_3461  1
    RHS1      constraint2_3462  1
    RHS1      constraint2_3463  1
BOUNDS
 UP BND1      Z_253_1_0  1
 UP BND1      Z_253_1_1  1
 UP BND1      Z_253_1_2  1
 UP BND1      Z_253_1_3  1
 UP BND1      Z_253_1_4  1
 UP BND1      Z_260_0_0  1
 UP BND1      Z_260_0_1  1
 UP BND1      Z_260_0_2  1
 UP BND1      Z_260_0_3  1
 UP BND1      Z_260_0_4  1
 UP BND1      Z_370_0_0  1
 UP BND1      Z_370_0_1  1
 UP BND1      Z_370_0_2  1
 UP BND1      Z_370_0_3  1
 UP BND1      Z_370_0_4  1
 UP BND1      Z_250_0_0  1
 UP BND1      Z_250_0_1  1
 UP BND1      Z_250_0_2  1
 UP BND1      Z_250_0_3  1
 UP BND1      Z_250_0_4  1
 UP BND1      Z_34_0_0  1
 UP BND1      Z_34_0_1  1
 UP BND1      Z_34_0_2  1
 UP BND1      Z_34_0_3  1
 UP BND1      Z_34_0_4  1
QUADOBJ
    Z_260_0_0  Z_34_0_0  -1.7870218676543911e-01
    Z_260_0_1  Z_34_0_1  -1.7870218676543911e-01
    Z_260_0_2  Z_34_0_2  -1.7870218676543911e-01
    Z_260_0_3  Z_34_0_3  -1.7870218676543911e-01
ENDATA
