ilp_joint/output/asexual reproduction_ilp.sol
# Solution for model asexual reproduction_srl_ilp
# Objective value = 1.7622040679114248e+00
Z_12_0_0 0
Z_12_0_1 0
Z_12_0_2 1
Z_12_0_3 0
Z_12_0_4 0
Z_493_0_0 0
Z_493_0_1 0
Z_493_0_2 1
Z_493_0_3 0
Z_493_0_4 0
